3129
3416
3195
3146
3244
3888
3723
3982
3858
3555
4172
4087
4317
3892
3869
4682
4865
4855
4670
4496
5289
5320
5073
5093
4406
5411
5855
5618
5957
5532
6278
5976
6422
6019
6293
6952
6663
6583
6712
6517
3932
4156
4256
4040
4123
4594
4731
4625
4489
4730
5105
5297
5404
5396
5048
6272
5903
5908
5703
5869
6400
6500
6510
6606
6455
7430
7291
6922
7023
7435
7811
8130
7768
7633
7749
8093
8181
8641
9026
8387
